
  22   10
  10   10   10   10   10   10   10   10   10   10

   0   0   0   0   0   0   0   0   0   0   0   7 2 3 4 6 8 9 14 
   1  10  10  10  10  10  10  10  10  10  10   2 19 5 
   3  10  10  10  10  10  10  10  10  10  10   4 19 17 12 7 
   4  10  10  10  10  10  10  10  10  10  10   4 20 19 17 7 
   5  10  10  10  10  10  10  10  10  10  10   3 20 11 7 
   3  10  10  10  10  10  10  10  10  10  10   5 20 18 17 15 13 
   7  10  10  10  10  10  10  10  10  10  10   3 21 18 10 
   7  10  10  10  10  10  10  10  10  10  10   3 19 17 10 
   1  10  10  10  10  10  10  10  10  10  10   3 19 18 16 
   7  10  10  10  10  10  10  10  10  10  10   2 15 13 
   4  10  10  10  10  10  10  10  10  10  10   2 17 15 
   5  10  10  10  10  10  10  10  10  10  10   2 20 15 
   5  10  10  10  10  10  10  10  10  10  10   1 16 
   4  10  10  10  10  10  10  10  10  10  10   1 19 
   4  10  10  10  10  10  10  10  10  10  10   1 22
   2  10  10  10  10  10  10  10  10  10  10   1 22
   1  10  10  10  10  10  10  10  10  10  10   1 22
   8  10  10  10  10  10  10  10  10  10  10   1 22
   3  10  10  10  10  10  10  10  10  10  10   1 22
   2  10  10  10  10  10  10  10  10  10  10   1 22
   7  10  10  10  10  10  10  10  10  10  10   1 22
   0   0   0   0   0   0   0   0   0   0   0   0 
